# pbepbe/6-31g(d,p)/auto scf=tight

graphite 3 layers

0 1
 C                  0.00000000   -0.71455900    0.00000000
 C                  0.00000000    0.71455900    0.00000000
 C                  2.47531500   -0.71455900    0.00000000
 C                  4.95063000   -0.71455900    0.00000000
 C                  7.42594500   -0.71455900    0.00000000
 C                  9.90126000   -0.71455900    0.00000000
 C                 12.37657500   -0.71455900    0.00000000
 C                 14.85189000   -0.71455900    0.00000000
 C                 17.32720500   -0.71455900    0.00000000
 C                  2.47531500    0.71455900    0.00000000
 C                  4.95063000    0.71455900    0.00000000
 C                  7.42594500    0.71455900    0.00000000
 C                  9.90126000    0.71455900    0.00000000
 C                 12.37657500    0.71455900    0.00000000
 C                 14.85189000    0.71455900    0.00000000
 C                 17.32720500    0.71455900    0.00000000
 C                 -1.21995200    1.41888800    0.00000000
 C                 -2.43990400    3.55233500    0.00000000
 C                 -3.65985600    5.68578200    0.00000000
 C                 -4.87980800    7.81922900    0.00000000
 C                 -6.09976000    9.95267600    0.00000000
 C                 -7.31971200   12.08612300    0.00000000
 C                 -8.53966400   14.21957000    0.00000000
 C                 -1.21995200    2.84800600    0.00000000
 C                 -2.43990400    4.98145300    0.00000000
 C                 -3.65985600    7.11490000    0.00000000
 C                 -4.87980800    9.24834700    0.00000000
 C                 -6.09976000   11.38179400    0.00000000
 C                 -7.31971200   13.51524100    0.00000000
 C                 -8.53966400   15.64868800    0.00000000
 C                  1.25536300    1.41888800    0.00000000
 C                  0.03541100    3.55233500    0.00000000
 C                 -1.18454100    5.68578200    0.00000000
 C                 -2.40449300    7.81922900    0.00000000
 C                 -3.62444500    9.95267600    0.00000000
 C                 -4.84439700   12.08612300    0.00000000
 C                 -6.06434900   14.21957000    0.00000000
 C                  3.73067800    1.41888800    0.00000000
 C                  2.51072600    3.55233500    0.00000000
 C                  1.29077400    5.68578200    0.00000000
 C                  0.07082200    7.81922900    0.00000000
 C                 -1.14913000    9.95267600    0.00000000
 C                 -2.36908200   12.08612300    0.00000000
 C                 -3.58903400   14.21957000    0.00000000
 C                  6.20599300    1.41888800    0.00000000
 C                  4.98604100    3.55233500    0.00000000
 C                  3.76608900    5.68578200    0.00000000
 C                  2.54613700    7.81922900    0.00000000
 C                  1.32618500    9.95267600    0.00000000
 C                  0.10623300   12.08612300    0.00000000
 C                 -1.11371900   14.21957000    0.00000000
 C                  8.68130800    1.41888800    0.00000000
 C                  7.46135600    3.55233500    0.00000000
 C                  6.24140400    5.68578200    0.00000000
 C                  5.02145200    7.81922900    0.00000000
 C                  3.80150000    9.95267600    0.00000000
 C                  2.58154800   12.08612300    0.00000000
 C                  1.36159600   14.21957000    0.00000000
 C                 11.15662300    1.41888800    0.00000000
 C                  9.93667100    3.55233500    0.00000000
 C                  8.71671900    5.68578200    0.00000000
 C                  7.49676700    7.81922900    0.00000000
 C                  6.27681500    9.95267600    0.00000000
 C                  5.05686300   12.08612300    0.00000000
 C                  3.83691100   14.21957000    0.00000000
 C                 13.63193800    1.41888800    0.00000000
 C                 12.41198600    3.55233500    0.00000000
 C                 11.19203400    5.68578200    0.00000000
 C                  9.97208200    7.81922900    0.00000000
 C                  8.75213000    9.95267600    0.00000000
 C                  7.53217800   12.08612300    0.00000000
 C                  6.31222600   14.21957000    0.00000000
 C                 16.10725300    1.41888800    0.00000000
 C                 14.88730100    3.55233500    0.00000000
 C                 13.66734900    5.68578200    0.00000000
 C                 12.44739700    7.81922900    0.00000000
 C                 11.22744500    9.95267600    0.00000000
 C                 10.00749300   12.08612300    0.00000000
 C                  8.78754100   14.21957000    0.00000000
 C                  1.25536300    2.84800600    0.00000000
 C                  0.03541100    4.98145300    0.00000000
 C                 -1.18454100    7.11490000    0.00000000
 C                 -2.40449300    9.24834700    0.00000000
 C                 -3.62444500   11.38179400    0.00000000
 C                 -4.84439700   13.51524100    0.00000000
 C                 -6.06434900   15.64868800    0.00000000
 C                  3.73067800    2.84800600    0.00000000
 C                  2.51072600    4.98145300    0.00000000
 C                  1.29077400    7.11490000    0.00000000
 C                  0.07082200    9.24834700    0.00000000
 C                 -1.14913000   11.38179400    0.00000000
 C                 -2.36908200   13.51524100    0.00000000
 C                 -3.58903400   15.64868800    0.00000000
 C                  6.20599300    2.84800600    0.00000000
 C                  4.98604100    4.98145300    0.00000000
 C                  3.76608900    7.11490000    0.00000000
 C                  2.54613700    9.24834700    0.00000000
 C                  1.32618500   11.38179400    0.00000000
 C                  0.10623300   13.51524100    0.00000000
 C                 -1.11371900   15.64868800    0.00000000
 C                  8.68130800    2.84800600    0.00000000
 C                  7.46135600    4.98145300    0.00000000
 C                  6.24140400    7.11490000    0.00000000
 C                  5.02145200    9.24834700    0.00000000
 C                  3.80150000   11.38179400    0.00000000
 C                  2.58154800   13.51524100    0.00000000
 C                  1.36159600   15.64868800    0.00000000
 C                 11.15662300    2.84800600    0.00000000
 C                  9.93667100    4.98145300    0.00000000
 C                  8.71671900    7.11490000    0.00000000
 C                  7.49676700    9.24834700    0.00000000
 C                  6.27681500   11.38179400    0.00000000
 C                  5.05686300   13.51524100    0.00000000
 C                  3.83691100   15.64868800    0.00000000
 C                 13.63193800    2.84800600    0.00000000
 C                 12.41198600    4.98145300    0.00000000
 C                 11.19203400    7.11490000    0.00000000
 C                  9.97208200    9.24834700    0.00000000
 C                  8.75213000   11.38179400    0.00000000
 C                  7.53217800   13.51524100    0.00000000
 C                  6.31222600   15.64868800    0.00000000
 C                 16.10725300    2.84800600    0.00000000
 C                 14.88730100    4.98145300    0.00000000
 C                 13.66734900    7.11490000    0.00000000
 C                 12.44739700    9.24834700    0.00000000
 C                 11.22744500   11.38179400    0.00000000
 C                 10.00749300   13.51524100    0.00000000
 C                  8.78754100   15.64868800    0.00000000
 C                  0.00000000   -0.71455900    3.35000000
 C                  0.00000000   -0.71455900    6.70000000
 C                  0.00000000    0.71455900    3.35000000
 C                  0.00000000    0.71455900    6.70000000
 C                  2.47531500   -0.71455900    3.35000000
 C                  2.47531500   -0.71455900    6.70000000
 C                  4.95063000   -0.71455900    3.35000000
 C                  4.95063000   -0.71455900    6.70000000
 C                  7.42594500   -0.71455900    3.35000000
 C                  7.42594500   -0.71455900    6.70000000
 C                  9.90126000   -0.71455900    3.35000000
 C                  9.90126000   -0.71455900    6.70000000
 C                 12.37657500   -0.71455900    3.35000000
 C                 12.37657500   -0.71455900    6.70000000
 C                 14.85189000   -0.71455900    3.35000000
 C                 14.85189000   -0.71455900    6.70000000
 C                 17.32720500   -0.71455900    3.35000000
 C                 17.32720500   -0.71455900    6.70000000
 C                  2.47531500    0.71455900    3.35000000
 C                  2.47531500    0.71455900    6.70000000
 C                  4.95063000    0.71455900    3.35000000
 C                  4.95063000    0.71455900    6.70000000
 C                  7.42594500    0.71455900    3.35000000
 C                  7.42594500    0.71455900    6.70000000
 C                  9.90126000    0.71455900    3.35000000
 C                  9.90126000    0.71455900    6.70000000
 C                 12.37657500    0.71455900    3.35000000
 C                 12.37657500    0.71455900    6.70000000
 C                 14.85189000    0.71455900    3.35000000
 C                 14.85189000    0.71455900    6.70000000
 C                 17.32720500    0.71455900    3.35000000
 C                 17.32720500    0.71455900    6.70000000
 C                 -1.21995200    1.41888800    3.35000000
 C                 -1.21995200    1.41888800    6.70000000
 C                 -2.43990400    3.55233500    3.35000000
 C                 -2.43990400    3.55233500    6.70000000
 C                 -3.65985600    5.68578200    3.35000000
 C                 -3.65985600    5.68578200    6.70000000
 C                 -4.87980800    7.81922900    3.35000000
 C                 -4.87980800    7.81922900    6.70000000
 C                 -6.09976000    9.95267600    3.35000000
 C                 -6.09976000    9.95267600    6.70000000
 C                 -7.31971200   12.08612300    3.35000000
 C                 -7.31971200   12.08612300    6.70000000
 C                 -8.53966400   14.21957000    3.35000000
 C                 -8.53966400   14.21957000    6.70000000
 C                 -1.21995200    2.84800600    3.35000000
 C                 -1.21995200    2.84800600    6.70000000
 C                 -2.43990400    4.98145300    3.35000000
 C                 -2.43990400    4.98145300    6.70000000
 C                 -3.65985600    7.11490000    3.35000000
 C                 -3.65985600    7.11490000    6.70000000
 C                 -4.87980800    9.24834700    3.35000000
 C                 -4.87980800    9.24834700    6.70000000
 C                 -6.09976000   11.38179400    3.35000000
 C                 -6.09976000   11.38179400    6.70000000
 C                 -7.31971200   13.51524100    3.35000000
 C                 -7.31971200   13.51524100    6.70000000
 C                 -8.53966400   15.64868800    3.35000000
 C                 -8.53966400   15.64868800    6.70000000
 C                  1.25536300    1.41888800    3.35000000
 C                  1.25536300    1.41888800    6.70000000
 C                  0.03541100    3.55233500    3.35000000
 C                  0.03541100    3.55233500    6.70000000
 C                 -1.18454100    5.68578200    3.35000000
 C                 -1.18454100    5.68578200    6.70000000
 C                 -2.40449300    7.81922900    3.35000000
 C                 -2.40449300    7.81922900    6.70000000
 C                 -3.62444500    9.95267600    3.35000000
 C                 -3.62444500    9.95267600    6.70000000
 C                 -4.84439700   12.08612300    3.35000000
 C                 -4.84439700   12.08612300    6.70000000
 C                 -6.06434900   14.21957000    3.35000000
 C                 -6.06434900   14.21957000    6.70000000
 C                  3.73067800    1.41888800    3.35000000
 C                  3.73067800    1.41888800    6.70000000
 C                  2.51072600    3.55233500    3.35000000
 C                  2.51072600    3.55233500    6.70000000
 C                  1.29077400    5.68578200    3.35000000
 C                  1.29077400    5.68578200    6.70000000
 C                  0.07082200    7.81922900    3.35000000
 C                  0.07082200    7.81922900    6.70000000
 C                 -1.14913000    9.95267600    3.35000000
 C                 -1.14913000    9.95267600    6.70000000
 C                 -2.36908200   12.08612300    3.35000000
 C                 -2.36908200   12.08612300    6.70000000
 C                 -3.58903400   14.21957000    3.35000000
 C                 -3.58903400   14.21957000    6.70000000
 C                  6.20599300    1.41888800    3.35000000
 C                  6.20599300    1.41888800    6.70000000
 C                  4.98604100    3.55233500    3.35000000
 C                  4.98604100    3.55233500    6.70000000
 C                  3.76608900    5.68578200    3.35000000
 C                  3.76608900    5.68578200    6.70000000
 C                  2.54613700    7.81922900    3.35000000
 C                  2.54613700    7.81922900    6.70000000
 C                  1.32618500    9.95267600    3.35000000
 C                  1.32618500    9.95267600    6.70000000
 C                  0.10623300   12.08612300    3.35000000
 C                  0.10623300   12.08612300    6.70000000
 C                 -1.11371900   14.21957000    3.35000000
 C                 -1.11371900   14.21957000    6.70000000
 C                  8.68130800    1.41888800    3.35000000
 C                  8.68130800    1.41888800    6.70000000
 C                  7.46135600    3.55233500    3.35000000
 C                  7.46135600    3.55233500    6.70000000
 C                  6.24140400    5.68578200    3.35000000
 C                  6.24140400    5.68578200    6.70000000
 C                  5.02145200    7.81922900    3.35000000
 C                  5.02145200    7.81922900    6.70000000
 C                  3.80150000    9.95267600    3.35000000
 C                  3.80150000    9.95267600    6.70000000
 C                  2.58154800   12.08612300    3.35000000
 C                  2.58154800   12.08612300    6.70000000
 C                  1.36159600   14.21957000    3.35000000
 C                  1.36159600   14.21957000    6.70000000
 C                 11.15662300    1.41888800    3.35000000
 C                 11.15662300    1.41888800    6.70000000
 C                  9.93667100    3.55233500    3.35000000
 C                  9.93667100    3.55233500    6.70000000
 C                  8.71671900    5.68578200    3.35000000
 C                  8.71671900    5.68578200    6.70000000
 C                  7.49676700    7.81922900    3.35000000
 C                  7.49676700    7.81922900    6.70000000
 C                  6.27681500    9.95267600    3.35000000
 C                  6.27681500    9.95267600    6.70000000
 C                  5.05686300   12.08612300    3.35000000
 C                  5.05686300   12.08612300    6.70000000
 C                  3.83691100   14.21957000    3.35000000
 C                  3.83691100   14.21957000    6.70000000
 C                 13.63193800    1.41888800    3.35000000
 C                 13.63193800    1.41888800    6.70000000
 C                 12.41198600    3.55233500    3.35000000
 C                 12.41198600    3.55233500    6.70000000
 C                 11.19203400    5.68578200    3.35000000
 C                 11.19203400    5.68578200    6.70000000
 C                  9.97208200    7.81922900    3.35000000
 C                  9.97208200    7.81922900    6.70000000
 C                  8.75213000    9.95267600    3.35000000
 C                  8.75213000    9.95267600    6.70000000
 C                  7.53217800   12.08612300    3.35000000
 C                  7.53217800   12.08612300    6.70000000
 C                  6.31222600   14.21957000    3.35000000
 C                  6.31222600   14.21957000    6.70000000
 C                 16.10725300    1.41888800    3.35000000
 C                 16.10725300    1.41888800    6.70000000
 C                 14.88730100    3.55233500    3.35000000
 C                 14.88730100    3.55233500    6.70000000
 C                 13.66734900    5.68578200    3.35000000
 C                 13.66734900    5.68578200    6.70000000
 C                 12.44739700    7.81922900    3.35000000
 C                 12.44739700    7.81922900    6.70000000
 C                 11.22744500    9.95267600    3.35000000
 C                 11.22744500    9.95267600    6.70000000
 C                 10.00749300   12.08612300    3.35000000
 C                 10.00749300   12.08612300    6.70000000
 C                  8.78754100   14.21957000    3.35000000
 C                  8.78754100   14.21957000    6.70000000
 C                  1.25536300    2.84800600    3.35000000
 C                  1.25536300    2.84800600    6.70000000
 C                  0.03541100    4.98145300    3.35000000
 C                  0.03541100    4.98145300    6.70000000
 C                 -1.18454100    7.11490000    3.35000000
 C                 -1.18454100    7.11490000    6.70000000
 C                 -2.40449300    9.24834700    3.35000000
 C                 -2.40449300    9.24834700    6.70000000
 C                 -3.62444500   11.38179400    3.35000000
 C                 -3.62444500   11.38179400    6.70000000
 C                 -4.84439700   13.51524100    3.35000000
 C                 -4.84439700   13.51524100    6.70000000
 C                 -6.06434900   15.64868800    3.35000000
 C                 -6.06434900   15.64868800    6.70000000
 C                  3.73067800    2.84800600    3.35000000
 C                  3.73067800    2.84800600    6.70000000
 C                  2.51072600    4.98145300    3.35000000
 C                  2.51072600    4.98145300    6.70000000
 C                  1.29077400    7.11490000    3.35000000
 C                  1.29077400    7.11490000    6.70000000
 C                  0.07082200    9.24834700    3.35000000
 C                  0.07082200    9.24834700    6.70000000
 C                 -1.14913000   11.38179400    3.35000000
 C                 -1.14913000   11.38179400    6.70000000
 C                 -2.36908200   13.51524100    3.35000000
 C                 -2.36908200   13.51524100    6.70000000
 C                 -3.58903400   15.64868800    3.35000000
 C                 -3.58903400   15.64868800    6.70000000
 C                  6.20599300    2.84800600    3.35000000
 C                  6.20599300    2.84800600    6.70000000
 C                  4.98604100    4.98145300    3.35000000
 C                  4.98604100    4.98145300    6.70000000
 C                  3.76608900    7.11490000    3.35000000
 C                  3.76608900    7.11490000    6.70000000
 C                  2.54613700    9.24834700    3.35000000
 C                  2.54613700    9.24834700    6.70000000
 C                  1.32618500   11.38179400    3.35000000
 C                  1.32618500   11.38179400    6.70000000
 C                  0.10623300   13.51524100    3.35000000
 C                  0.10623300   13.51524100    6.70000000
 C                 -1.11371900   15.64868800    3.35000000
 C                 -1.11371900   15.64868800    6.70000000
 C                  8.68130800    2.84800600    3.35000000
 C                  8.68130800    2.84800600    6.70000000
 C                  7.46135600    4.98145300    3.35000000
 C                  7.46135600    4.98145300    6.70000000
 C                  6.24140400    7.11490000    3.35000000
 C                  6.24140400    7.11490000    6.70000000
 C                  5.02145200    9.24834700    3.35000000
 C                  5.02145200    9.24834700    6.70000000
 C                  3.80150000   11.38179400    3.35000000
 C                  3.80150000   11.38179400    6.70000000
 C                  2.58154800   13.51524100    3.35000000
 C                  2.58154800   13.51524100    6.70000000
 C                  1.36159600   15.64868800    3.35000000
 C                  1.36159600   15.64868800    6.70000000
 C                 11.15662300    2.84800600    3.35000000
 C                 11.15662300    2.84800600    6.70000000
 C                  9.93667100    4.98145300    3.35000000
 C                  9.93667100    4.98145300    6.70000000
 C                  8.71671900    7.11490000    3.35000000
 C                  8.71671900    7.11490000    6.70000000
 C                  7.49676700    9.24834700    3.35000000
 C                  7.49676700    9.24834700    6.70000000
 C                  6.27681500   11.38179400    3.35000000
 C                  6.27681500   11.38179400    6.70000000
 C                  5.05686300   13.51524100    3.35000000
 C                  5.05686300   13.51524100    6.70000000
 C                  3.83691100   15.64868800    3.35000000
 C                  3.83691100   15.64868800    6.70000000
 C                 13.63193800    2.84800600    3.35000000
 C                 13.63193800    2.84800600    6.70000000
 C                 12.41198600    4.98145300    3.35000000
 C                 12.41198600    4.98145300    6.70000000
 C                 11.19203400    7.11490000    3.35000000
 C                 11.19203400    7.11490000    6.70000000
 C                  9.97208200    9.24834700    3.35000000
 C                  9.97208200    9.24834700    6.70000000
 C                  8.75213000   11.38179400    3.35000000
 C                  8.75213000   11.38179400    6.70000000
 C                  7.53217800   13.51524100    3.35000000
 C                  7.53217800   13.51524100    6.70000000
 C                  6.31222600   15.64868800    3.35000000
 C                  6.31222600   15.64868800    6.70000000
 C                 16.10725300    2.84800600    3.35000000
 C                 16.10725300    2.84800600    6.70000000
 C                 14.88730100    4.98145300    3.35000000
 C                 14.88730100    4.98145300    6.70000000
 C                 13.66734900    7.11490000    3.35000000
 C                 13.66734900    7.11490000    6.70000000
 C                 12.44739700    9.24834700    3.35000000
 C                 12.44739700    9.24834700    6.70000000
 C                 11.22744500   11.38179400    3.35000000
 C                 11.22744500   11.38179400    6.70000000
 C                 10.00749300   13.51524100    3.35000000
 C                 10.00749300   13.51524100    6.70000000
 C                  8.78754100   15.64868800    3.35000000
 C                  8.78754100   15.64868800    6.70000000


