 $CONTRL SCFTYP=RHF MPLEVL=2 RUNTYP=GRADIENT $END
 $SYSTEM TIMLIM=1 MEMDDI=1 PARALL=.TRUE. $END
 $BASIS  GBASIS=N21 NGAUSS=3 $END
 $GUESS  GUESS=HUCKEL $END
 $DATA
Water...RHF/3-21G...exp.geom...R(OH)=0.95781,A(HOH)=104.4776
C1
O  8.0   0.000000    0.000000    0.127164
H  1.0   0.000000    0.758137   -0.508657
H  1.0   0.000000   -0.758137   -0.508657
 $END
